c description: Perfect Matching Principle on 
c generator: CNFgen (0.9.0)
c copyright: (C) 2012-2020 Massimo Lauria <massimo.lauria@uniroma1.it>
c url: https://massimolauria.net/cnfgen
c
p cnf 40 183
-1 -2 0
1 2 0
-3 -4 0
-3 -5 0
-3 -6 0
-3 -7 0
-3 -8 0
-3 -9 0
-4 -5 0
-4 -6 0
-4 -7 0
-4 -8 0
-4 -9 0
-5 -6 0
-5 -7 0
-5 -8 0
-5 -9 0
-6 -7 0
-6 -8 0
-6 -9 0
-7 -8 0
-7 -9 0
-8 -9 0
3 4 5 6 7 8 9 0
-3 -10 0
-3 -11 0
-3 -12 0
-10 -11 0
-10 -12 0
-11 -12 0
3 10 11 12 0
-13 -14 0
-13 -15 0
-14 -15 0
13 14 15 0
16 0
-1 -4 0
-1 -17 0
-1 -18 0
-4 -17 0
-4 -18 0
-17 -18 0
1 4 17 18 0
-5 -19 0
-5 -20 0
-5 -21 0
-5 -22 0
-5 -23 0
-19 -20 0
-19 -21 0
-19 -22 0
-19 -23 0
-20 -21 0
-20 -22 0
-20 -23 0
-21 -22 0
-21 -23 0
-22 -23 0
5 19 20 21 22 23 0
0
-6 -24 0
-6 -25 0
-6 -26 0
-6 -27 0
-24 -25 0
-24 -26 0
-24 -27 0
-25 -26 0
-25 -27 0
-26 -27 0
6 24 25 26 27 0
-10 -19 0
-10 -28 0
-10 -29 0
-10 -30 0
-10 -31 0
-19 -28 0
-19 -29 0
-19 -30 0
-19 -31 0
-28 -29 0
-28 -30 0
-28 -31 0
-29 -30 0
-29 -31 0
-30 -31 0
10 19 28 29 30 31 0
-16 -17 0
16 17 0
-13 -18 0
-13 -20 0
-13 -32 0
-13 -33 0
-18 -20 0
-18 -32 0
-18 -33 0
-20 -32 0
-20 -33 0
-32 -33 0
13 18 20 32 33 0
34 0
-7 -11 0
-7 -21 0
-7 -35 0
-7 -36 0
-7 -37 0
-11 -21 0
-11 -35 0
-11 -36 0
-11 -37 0
-21 -35 0
-21 -36 0
-21 -37 0
-35 -36 0
-35 -37 0
-36 -37 0
7 11 21 35 36 37 0
-8 -22 0
-8 -24 0
-8 -28 0
-8 -32 0
-8 -34 0
-8 -35 0
-8 -38 0
-22 -24 0
-22 -28 0
-22 -32 0
-22 -34 0
-22 -35 0
-22 -38 0
-24 -28 0
-24 -32 0
-24 -34 0
-24 -35 0
-24 -38 0
-28 -32 0
-28 -34 0
-28 -35 0
-28 -38 0
-32 -34 0
-32 -35 0
-32 -38 0
-34 -35 0
-34 -38 0
-35 -38 0
8 22 24 28 32 34 35 38 0
-14 -25 0
-14 -33 0
-14 -36 0
-14 -39 0
-25 -33 0
-25 -36 0
-25 -39 0
-33 -36 0
-33 -39 0
-36 -39 0
14 25 33 36 39 0
-2 -12 0
-2 -23 0
-2 -26 0
-2 -29 0
-12 -23 0
-12 -26 0
-12 -29 0
-23 -26 0
-23 -29 0
-26 -29 0
2 12 23 26 29 0
-15 -27 0
-15 -30 0
-27 -30 0
15 27 30 0
-31 -38 0
-31 -39 0
-31 -40 0
-38 -39 0
-38 -40 0
-39 -40 0
31 38 39 40 0
-9 -37 0
-9 -40 0
-37 -40 0
9 37 40 0